c --- [ banner ] -------------------------------------------------------------
c 
c CaDiCaL Radically Simplified CDCL SAT Solver
c Copyright (c) 2016-2021 A. Biere, M. Fleury, N. Froleyks
c 
c Version 1.5.2 a5f15211db36c3956764e18194dd5bd63bf3b5e6
c g++ (GCC) 9.3.0 -Wall -Wextra -O3 -DNDEBUG
c Fri Oct 21 01:27:37 EDT 2022 Linux gra-login3 3.10.0-1160.66.1.el7.x86_64 x86_64
c 
c --- [ limit ] --------------------------------------------------------------
c 
c setting conflict limit to 200000 conflicts (due to '200000')
c 
c --- [ parsing input ] ------------------------------------------------------
c 
c reading DIMACS file from '33.cubes5563.adj'
c opening file to read '33.cubes5563.adj'
c found 'p cnf 6160 1595477' header
c parsed 1595477 clauses in 19.33 seconds process time
c closing file '33.cubes5563.adj'
c after reading 1457566791 bytes 1390.0 MB
c 
c --- [ options ] ------------------------------------------------------------
c 
c all options are set to their default value
c 
c --- [ solving ] ------------------------------------------------------------
c 
c time measured in process time since initialization
c 
c  seconds    reductions  redundant   irredundant
c          MB     restarts       trail       variables
c            level   conflicts       glue         remaining
c 
c * 19.33 1377  0 0   0    0    0  0% 0 1595422 2396 39%
c { 20.55 1430  0 0   0    0    0  0% 0 1595422 2396 39%
c i 22.36 1480 823 0   2   32   28 38% 6 1595422 2368 38%
c i 24.34 1502 302 0  10   96   85 30% 10 1595422 2328 38%
c i 25.32 1508 221 0  23  150  122 28% 18 1595422 2327 38%
c i 25.94 1510 213 0  26  163  131 28% 18 1595422 2326 38%
c i 26.40 1513 195 0  33  192  153 29% 25 1595422 2325 38%
c i 26.96 1518 184 0  38  214  173 28% 24 1595422 2324 38%
c i 26.97 1519 183 0  39  215  173 28% 24 1595422 2323 38%
c i 27.49 1519 165 0  47  245  200 28% 25 1595422 2322 38%
c i 27.58 1519 163 0  49  260  208 28% 25 1595422 2318 38%
c i 27.98 1520 158 0  55  279  224 28% 27 1595422 2317 38%
c i 28.38 1521 154 0  60  299  241 28% 27 1595422 2316 38%
c - 32.61 1459 154 1  61  300  242 28% 27 355082 2316 38%
c i 33.49 1391 135 1  76  369  298 28% 28 355082 2315 38%
c i 33.52 1391 135 1  77  371  299 28% 28 355082 2314 38%
c i 33.53 1391 134 1  77  373  300 28% 28 355082 2313 38%
c i 33.58 1391 130 1  78  395  320 28% 28 355082 2312 38%
c i 33.82 1391 119 1  78  445  354 28% 27 355082 2311 38%
c i 33.86 1391 118 1  78  451  359 28% 27 355082 2310 38%
c 
c  seconds     reductions  redundant   irredundant
c          MB      restarts       trail       variables
c             level   conflicts       glue         remaining
c 
c i 33.89 1391 115 1  78  469  372 28% 27 355082 2309 37%
c i 33.90 1391 114 1  78  476  377 28% 27 355082 2308 37%
c i 33.95 1391 110 1  78  512  398 28% 27 355082 2307 37%
c i 34.50 1392 106 1  90  584  463 28% 30 355082 2306 37%
c i 34.66 1392 107 1  95  602  478 28% 30 355082 2305 37%
c i 35.07 1392 106 1 103  637  510 28% 31 355082 2304 37%
c i 35.27 1392 104 1 110  665  535 28% 31 355082 2303 37%
c i 35.34 1392 102 1 112  694  559 28% 31 355082 2302 37%
c i 35.44 1392 100 1 112  712  571 28% 30 355082 2301 37%
c i 35.62 1392 97 1 112  756  605 28% 30 355082 2300 37%
c i 35.83 1392 92 1 112  825  653 28% 30 355082 2299 37%
c i 35.95 1392 91 1 114  845  669 28% 30 355082 2298 37%
c i 36.23 1392 92 1 117  859  681 28% 30 355082 2296 37%
c i 36.62 1392 90 1 126  893  711 28% 31 355082 2295 37%
c } 37.62 1393 87 1 138 1005  814 28% 31 355082 2295 37%
c [ 37.62 1393  0 1 138 1005  814  0% 0 355082 2295 37%
c O 37.63 1393  3 1 138 1006  815 17% 2 355082 2295 37%
c i 38.04 1393 20 1 138 1184  959 33% 16 355082 2294 37%
c - 38.69 1513 20 2 138 1231  886 33% 17 355016 2294 37%
c i 38.89 1513 19 2 138 1300  928 32% 17 355016 2293 37%
c 
c  seconds    reductions  redundant   irredundant
c          MB     restarts       trail       variables
c            level   conflicts       glue         remaining
c 
c i 38.92 1513 19 2 138 1333  948 32% 17 355016 2292 37%
c i 38.92 1513 19 2 138 1334  948 32% 17 355016 2291 37%
c i 38.95 1513 20 2 138 1406  982 32% 17 355016 2290 37%
c i 39.10 1513 19 2 138 1745 1207 32% 16 355016 2289 37%
c i 39.12 1513 19 2 138 1767 1218 32% 16 355016 2288 37%
c i 39.17 1513 19 2 138 1887 1301 32% 16 355016 2287 37%
c i 39.19 1513 19 2 138 1912 1319 32% 16 355016 2286 37%
c i 39.20 1513 19 2 138 1945 1342 32% 16 355016 2285 37%
c i 39.29 1513 19 2 139 2183 1497 32% 16 355016 2284 37%
c i 39.41 1513 18 2 139 2390 1625 32% 16 355016 2283 37%
c i 39.41 1513 18 2 139 2396 1629 31% 16 355016 2282 37%
c i 39.43 1513 18 2 139 2441 1654 31% 15 355016 2281 37%
c i 39.45 1513 18 2 139 2465 1672 31% 16 355016 2280 37%
c i 39.45 1513 18 2 139 2471 1674 31% 16 355016 2279 37%
c i 39.45 1513 18 2 139 2478 1680 31% 15 355016 2278 37%
c i 39.47 1513 18 2 139 2517 1697 31% 15 355016 2277 37%
c - 40.00 1507 18 3 139 2628 1293 31% 15 354965 2277 37%
c i 40.67 1507 20 3 139 2954 1498 50% 17 354965 2276 37%
c ] 40.71 1507 20 3 139 3005 1537 51% 17 354965 2276 37%
c { 40.71 1507 87 3 139 3005 1537 76% 31 354965 2276 37%
c 
c  seconds    reductions  redundant   irredundant
c          MB     restarts       trail       variables
c            level   conflicts       glue         remaining
c 
c F 40.72 1507 87 3 139 3007 1539 76% 31 354965 2276 37%
c i 40.73 1507 87 3 139 3009 1540 76% 31 354965 2275 37%
c i 40.95 1507 77 3 139 3163 1634 73% 28 354965 2274 37%
c i 41.20 1507 60 3 139 3577 1816 67% 23 354965 2273 37%
c i 41.34 1507 53 3 139 3847 1945 65% 21 354965 2272 37%
c i 41.54 1507 49 3 148 4064 2075 63% 20 354965 2271 37%
c i 42.64 1507 49 3 210 4342 2314 61% 22 354965 2270 37%
c i 42.94 1507 50 3 223 4398 2366 60% 22 354965 2269 37%
c - 43.86 1504 51 4 229 4490 1706 60% 22 354941 2269 37%
c i 44.79 1504 53 4 265 4642 1840 59% 23 354941 2266 37%
c d 46.44 1504 50 4 293 5004 2119 57% 23 331384 2252 37%
c 3 46.47 1504 50 4 293 5004 3191 57% 23 331375 2252 37%
c 3 46.48 1504 50 4 293 5004 3360 57% 23 331375 2252 37%
c 2 46.53 1504 50 4 293 5004 3360 57% 23 331375 2249 37%
c p 49.73 1504 50 4 293 5004 7046 57% 23 331375 2178 35%
c d 50.27 1504 50 4 293 5004 6653 57% 23 312234 2174 35%
c } 51.32 1504 49 4 343 5444 6988 56% 24 312234 2174 35%
c 1 51.32 1504 49 4 343 5444 6988 56% 24 312234 2174 35%
c 
c --- [ writing output ] -----------------------------------------------------
c 
c writing simplified CNF to DIMACS file 'simp/33.cubes5563.adj.simp1'
c * 51.32 1504 49 4 343 5444 6988 56% 24 312234 2174 35%
c opening file to write 'simp/33.cubes5563.adj.simp1'
c writing 'p cnf 6160 312234' header
c closing file 'simp/33.cubes5563.adj.simp1'
c after writing 133217534 bytes 127.0 MB
c wrote 312234 clauses in 0.98 seconds process time
c 
c --- [ writing extension ] --------------------------------------------------
c 
c writing extension stack to 'simp/33.cubes5563.adj.ext1'
c opening file to write 'simp/33.cubes5563.adj.ext1'
c closing file 'simp/33.cubes5563.adj.ext1'
c after writing 12896 bytes 0.0 MB
c wrote 860 witnesses in 0.00 seconds process time
c 
c --- [ result ] -------------------------------------------------------------
c 
s SATISFIABLE
c 
c --- [ run-time profiling ] -------------------------------------------------
c 
c process time taken by individual solving procedures
c (percentage relative to process time for solving)
c 
c        27.59   86.21% search
c        23.27   72.72% unstable
c        19.33   60.40% parse
c         4.41   13.79% simplify
c         3.19    9.98% probe
c         3.09    9.66% stable
c         1.23    3.83% lucky
c         0.05    0.16% ternary
c   =================================
c        32.00   61.17% solve
c 
c last line shows process time for solving
c (percentage relative to total process time)
c 
c --- [ statistics ] ---------------------------------------------------------
c 
c chronological:              1352        24.83 %  of conflicts
c conflicts:                  5444       170.13    per second
c decisions:                 32036      1001.18    per second
c fixed:                       824        13.38 %  of all variables
c learned:                    5289        97.15 %  per conflict
c learned_lits:             937543       100.00 %  learned literals
c minimized:                     0         0.00 %  learned literals
c shrunken:                 576877        61.53 %  learned literals
c minishrunken:              77323         8.25 %  learned literals
c propagations:            1049332         0.03 M  per second
c reduced:                    1311        24.08 %  per conflict
c rephased:                      2      2722.00    interval
c restarts:                    343        15.87    interval
c stabilizing:                   1        36.74 %  of conflicts
c substituted:                  18         0.29 %  of all variables
c subsumed:                   1448         0.04 %  of all clauses
c ternary:                    1254         0.58 %  of resolved
c weakened:                     36         2.00    average size
c 
c seconds are measured in process time for solving
c 
c --- [ resources ] ----------------------------------------------------------
c 
c total process time since initialization:        52.31    seconds
c total real time since initialization:           52.56    seconds
c maximum resident set size of process:         1661.27    MB
c 
c --- [ shutting down ] ------------------------------------------------------
c 
c exit 10
WARNING! DIMACS header mismatch: wrong number of variables.
============================[ Problem Statistics ]=============================
|                                                                             |
|  Number of variables:          6120                                         |
|  Number of clauses:          312240                                         |
|  Parse time:                   1.84 s                                       |
|  Simplification time:          0.03 s                                       |
|                                                                             |
============================[ Search Statistics ]====================================================
| Conflicts |          ORIGINAL         |          LEARNT          | Num Sols |      SUBGRAPHS      |
|           |    Vars  Clauses Literals |    Limit  Clauses Lit/Cl |          | Canonical Noncanon. |
=====================================================================================================
|       102 |    6026   312242 28952396 |     2000      102    182 |        0 |        13         2 |
|       253 |    6026   312243 28952467 |     2000      253    124 |        0 |        24         3 |
|       508 |    6026   312273 28953335 |     2000      508    104 |        0 |        41        33 |
|       872 |    6026   312300 28953774 |     2000      872    104 |        0 |        54        60 |
|      1384 |    6026   312306 28953991 |     2000     1384    112 |        0 |        55        66 |
|      2153 |    6026   312316 28954278 |     3600     1153     82 |        0 |        58        76 |
|      3297 |    6026   312321 28954381 |     3600     2297     86 |        0 |        63        81 |
|      5029 |    6026   312345 28955015 |     5003     2232     77 |        0 |        93       105 |
|      7672 |    6026   312426 28957157 |     5003     4875     92 |        0 |       143       186 |
|     11769 |    6026   312679 28962413 |     7554     3323     60 |        0 |       230       439 |
|     17826 |    6026   312970 28968983 |     8783     5609     62 |        0 |       350       730 |
|     26915 |    6026   313410 28976112 |    11201     5316     36 |        0 |       583      1170 |
|     40478 |    6026   313999 28986344 |    13613     7091     38 |        0 |       760      1759 |
|     60817 |    6026   314877 29001162 |    16013    13230     59 |        0 |      1017      2637 |
|     90609 |    6026   315477 29010668 |    19615    17224     62 |        0 |      1126      3237 |
|    134908 |    6026   315987 29019340 |    24416    18724     53 |        0 |      1280      3747 |
|    203960 |    6026   319355 29080117 |    30412    20772     54 |        0 |      1710      7115 |
|    306209 |    6026   323078 29153340 |    37610    22819     48 |        0 |      2617     10838 |
|    456251 |    6026   325331 29197326 |    46023    28674     52 |        0 |      3195     13091 |
|    684625 |    6026   332022 29341593 |    56810    28435     38 |        0 |      4393     19782 |
|   1025480 |    6026   340352 29517308 |    68814    58294     70 |        0 |      6280     28112 |
|   1533644 |    6026   349728 29723961 |    84415    72459     60 |        0 |      8471     37488 |
|   2294814 |    6026   362716 30031643 |   103622    86436     66 |        0 |     10731     50476 |
|   3426516 |    6026   372144 30187038 |   127617    68133     39 |        0 |     12159     59904 |
|   5132906 |    5985   277083 24021702 |   155857    77163     49 |        0 |     15291     82883 |
=====================================================================================================
Number of solutions   : 0
Canonical subgraphs   : 16146          (11 /sec)
          order  3    : 1              (200000 /sec)
          order  4    : 1              (500000 /sec)
          order  5    : 1              (250000 /sec)
          order  6    : 1              (52632 /sec)
          order  7    : 1              (7937 /sec)
          order  8    : 2              (1361 /sec)
          order  9    : 6              (310 /sec)
          order 10    : 25             (95 /sec)
          order 11    : 87             (26 /sec)
          order 12    : 407            (7 /sec)
          order 13    : 1830           (6 /sec)
          order 14    : 7425           (12 /sec)
          order 15    : 5820           (13 /sec)
          order 16    : 327            (12 /sec)
          order 17    : 92             (10 /sec)
          order 18    : 32             (12 /sec)
          order 19    : 31             (11 /sec)
          order 20    : 29             (12 /sec)
          order 21    : 28             (12 /sec)
          order 22    : 0              (-nan /sec)
Noncanonical subgraphs: 88716          (808 /sec)
          order  3    : 0              (-nan /sec)
          order  4    : 0              (-nan /sec)
          order  5    : 0              (-nan /sec)
          order  6    : 0              (-nan /sec)
          order  7    : 0              (-nan /sec)
          order  8    : 0              (-nan /sec)
          order  9    : 0              (-nan /sec)
          order 10    : 0              (-nan /sec)
          order 11    : 0              (-nan /sec)
          order 12    : 0              (-nan /sec)
          order 13    : 6239           (8582 /sec)
          order 14    : 21785          (4682 /sec)
          order 15    : 58719          (701 /sec)
          order 16    : 1900           (109 /sec)
          order 17    : 42             (75 /sec)
          order 18    : 3              (63 /sec)
          order 19    : 0              (-nan /sec)
          order 20    : 0              (-nan /sec)
          order 21    : 0              (-nan /sec)
Canonicity checking   : 1490.27 s
Noncanonicity checking: 109.741 s
Total canonicity time : 1600.01 s
database reductions   : 138
restarts              : 9666
conflicts             : 6014236        (1506 /sec)
decisions             : 7424550        (0.00 % random) (1859 /sec)
propagations          : 679362144      (170068 /sec)
conflict literals     : 572041139      (57.15 % deleted)
actual reward         : 0.105377
Memory used           : 400.00 MB
CPU time              : 3994.66 s

UNSATISFIABLE
